clay0203m.py
Ipopt 3.12: 
==> Warning: Treating 18 binary and 0 integer variables as continous.


******************************************************************************
This program contains Ipopt, a library for large-scale nonlinear optimization.
 Ipopt is released as open source code under the Eclipse Public License (EPL).
         For more information visit http://projects.coin-or.org/Ipopt
******************************************************************************

This is Ipopt version 3.12, running with linear solver ma27.

Number of nonzeros in equality constraint Jacobian...:       18
Number of nonzeros in inequality constraint Jacobian.:      144
Number of nonzeros in Lagrangian Hessian.............:        6

Total number of variables............................:       30
                     variables with only lower bounds:        6
                variables with lower and upper bounds:       24
                     variables with only upper bounds:        0
Total number of equality constraints.................:        6
Total number of inequality constraints...............:       48
        inequality constraints with only lower bounds:       12
   inequality constraints with lower and upper bounds:        0
        inequality constraints with only upper bounds:       36

iter    objective    inf_pr   inf_du lg(mu)  ||d||  lg(rg) alpha_du alpha_pr  ls
   0  1.2799987e+01 5.74e+01 3.23e+01  -1.0 0.00e+00    -  0.00e+00 0.00e+00   0
   1  3.3009026e+00 5.67e+01 3.21e+01  -1.0 9.86e+01    -  1.10e-02 1.42e-02f  1
   2  1.9978061e+00 5.48e+01 3.08e+01  -1.0 9.59e+01    -  4.31e-02 3.35e-02f  1
   3  1.7701254e+00 4.74e+01 3.45e+01  -1.0 8.92e+01    -  5.01e-02 1.43e-01f  1
   4  1.8752191e+00 7.63e+01 4.15e+01  -1.0 3.42e+01    -  2.62e-02 1.75e-01f  1
   5  1.9217711e+00 1.04e+02 3.21e+01  -1.0 2.38e+01    -  2.29e-01 2.29e-01f  1
   6  1.8618176e+00 2.36e+02 4.80e+01  -1.0 1.92e+01    -  1.41e-01 7.70e-01f  1
   7  2.0418550e+00 1.15e+02 2.20e+00  -1.0 8.46e+00    -  9.41e-01 6.00e-01h  1
   8  2.1558166e+00 3.43e+01 3.10e+00  -1.0 6.48e+00    -  7.77e-01 5.81e-01h  1
   9  2.5671992e+00 6.84e-03 8.31e+00  -1.0 6.35e+00    -  3.02e-01 6.52e-01f  1
iter    objective    inf_pr   inf_du lg(mu)  ||d||  lg(rg) alpha_du alpha_pr  ls
  10  3.3768721e+00 1.85e-03 3.38e+00  -1.0 2.62e+00    -  7.01e-01 7.30e-01h  1
  11  5.0326965e+00 2.22e-16 9.10e+00  -1.0 7.49e+00    -  7.46e-01 1.00e+00f  1
  12  5.4001286e+00 1.11e-16 8.13e-01  -1.0 1.07e+01    -  7.55e-01 1.00e+00h  1
  13  1.0795792e+00 0.00e+00 1.07e-04  -1.7 1.91e+00    -  1.00e+00 1.00e+00h  1
  14  8.1101138e-03 2.22e-16 7.09e-07  -3.8 3.08e-02    -  1.00e+00 1.00e+00f  1
  15  8.6825382e-05 1.11e-16 9.20e-09  -5.7 5.38e-02    -  1.00e+00 1.00e+00h  1
  16 -1.2664681e-05 0.00e+00 1.25e-11  -8.6 5.90e-03    -  1.00e+00 1.00e+00h  1

Number of Iterations....: 16

                                   (scaled)                 (unscaled)
Objective...............:  -4.2215604025603475e-06   -1.2664681207681043e-05
Dual infeasibility......:   1.2472640116991290e-11    3.7417920350973871e-11
Constraint violation....:   0.0000000000000000e+00    0.0000000000000000e+00
Complementarity.........:   2.9225703818372482e-09    8.7677111455117454e-09
Overall NLP error.......:   2.9225703818372482e-09    8.7677111455117454e-09


Number of objective function evaluations             = 17
Number of objective gradient evaluations             = 17
Number of equality constraint evaluations            = 17
Number of inequality constraint evaluations          = 17
Number of equality constraint Jacobian evaluations   = 17
Number of inequality constraint Jacobian evaluations = 17
Number of Lagrangian Hessian evaluations             = 16
Total CPU secs in IPOPT (w/o function evaluations)   =      0.004
Total CPU secs in NLP function evaluations           =      0.000

EXIT: Optimal Solution Found.

Time elapsed: 0.11660480499267578